% n20w140.005    33.45 331
numLocations = 21;
duration = duration = duration = duration = [|0, 31, 34, 28, 31, 39, 23, 26, 41, 36, 21, 3, 37, 38, 22, 3, 35, 34, 36, 12, 26... ]; // array too long to display, dimensions: (30)
 // array too long to display, dimensions: (421)

early = early = [0, 104, 19, 155, 222, 57, 0, 0, 0, 36, 255, 139, 45, 38, 118, 0, 0, 52, 47, 0, 2... ]; // array too long to display, dimensions: (21)

late = late = [384, 233, 160, 325, 353, 200, 79, 105, 131, 154, 361, 297, 195, 156, 237, 65, 11... ]; // array too long to display, dimensions: (21)
